D = 3;
T = 9;
N = 2;

MinDT=0;
MaxDT=3;
MaxDL=3;

incompatibles=[{},{},{},{},{},{},{},{},{}];
esSupervisor=[true,true,false,false,false,true,false,true,false];

diasPedidos=array2d(1..9, 1..3, [true,false,true,  false,true,true, true,false,true,  true,false,true,  false,true,true,
false,false,true,  true,false,false,  false,true,true,  false,false,true]);

turnosPedidos=array2d(1..9, 1..3, [turno1, turno3,libra,  libra,turno2,libra,   libra,libra,turno2,  turno1,libra,libra,  libra,libra,turno2,
libra,libra,turno2,  libra,libra,libra,  libra,turno1,libra,  libra,libra,turno1]);